p edge 47 99
e 1 7
e 1 24
e 1 41
e 1 44
e 2 18
e 2 34
e 2 38
e 2 41
e 3 13
e 3 14
e 3 19
e 4 7
e 4 32
e 5 12
e 6 7
e 6 20
e 6 21
e 6 33
e 6 35
e 6 38
e 6 41
e 7 9
e 7 32
e 7 43
e 8 23
e 8 29
e 8 35
e 9 10
e 9 27
e 9 30
e 9 47
e 10 13
e 10 39
e 10 44
e 10 46
e 11 20
e 11 34
e 11 35
e 12 22
e 12 35
e 12 40
e 13 29
e 13 31
e 14 15
e 14 21
e 14 29
e 14 45
e 15 18
e 15 31
e 16 43
e 16 46
e 17 47
e 18 26
e 18 28
e 19 25
e 19 34
e 19 36
e 19 40
e 19 43
e 20 25
e 21 23
e 22 23
e 22 30
e 22 43
e 22 47
e 23 25
e 23 34
e 24 27
e 24 31
e 25 27
e 25 28
e 25 35
e 25 38
e 26 34
e 26 42
e 27 32
e 28 31
e 28 43
e 29 32
e 29 33
e 29 40
e 29 42
e 30 34
e 30 46
e 31 37
e 31 39
e 31 43
e 32 41
e 33 39
e 34 40
e 35 37
e 36 45
e 37 43
e 38 43
e 39 44
e 40 44
e 42 46
e 43 45
e 43 46
